
Log started (V20.1.0.0) Thu Aug 18 20:46:26 2022


Log started (V20.1.0.0) Thu Aug 18 20:48:11 2022


Problem 'modelo.lp' read.
Read time = 1.94 sec. (134.43 ticks)

Problem 'modelo.lp' read.
Read time = 1.81 sec. (134.43 ticks)
Version identifier: 20.1.0.0 | 2020-11-10 | 9bedb6d68
Tried aggregator 1 time.
Reduced MIP has 4282 rows, 1990076 columns, and 5970228 nonzeros.
Reduced MIP has 1990076 binaries, 0 generals, 0 SOSs, and 0 indicators.
Presolve time = 2.51 sec. (1949.52 ticks)
Found incumbent of value 24856.000000 after 8.72 sec. (5765.20 ticks)
Tried aggregator 1 time.
Detecting symmetries...
Elapsed time for symmetry detection = 75.44 sec. (10000.12 ticks)
Elapsed time for symmetry detection = 161.26 sec. (20000.22 ticks)
Elapsed time for symmetry detection = 243.99 sec. (30000.40 ticks)
Elapsed time for symmetry detection = 330.50 sec. (40000.48 ticks)
Elapsed time for symmetry detection = 413.64 sec. (50000.61 ticks)
Elapsed time for symmetry detection = 500.56 sec. (60000.87 ticks)
Elapsed time for symmetry detection = 582.08 sec. (70000.88 ticks)
Found 2.461626e+1237 symmetric permutations.
Reduced MIP has 4282 rows, 1990076 columns, and 5970228 nonzeros.
Reduced MIP has 1990076 binaries, 0 generals, 0 SOSs, and 0 indicators.
Presolve time = 591.90 sec. (73415.74 ticks)
